c Generated with `cnfgen`
c (C) 2012-2018 Massimo Lauria <lauria.massimo@gmail.com>
c https://massimolauria.net/cnfgen
c
c COMMAND LINE: cnfgen tseitin --gnd 30 5 --charge randomodd
c
p cnf 75 480
1 2 3 4 -5 0
1 2 3 -4 5 0
1 2 -3 4 5 0
1 2 -3 -4 -5 0
1 -2 3 4 5 0
1 -2 3 -4 -5 0
1 -2 -3 4 -5 0
1 -2 -3 -4 5 0
-1 2 3 4 5 0
-1 2 3 -4 -5 0
-1 2 -3 4 -5 0
-1 2 -3 -4 5 0
-1 -2 3 4 -5 0
-1 -2 3 -4 5 0
-1 -2 -3 4 5 0
-1 -2 -3 -4 -5 0
1 6 7 8 -9 0
1 6 7 -8 9 0
1 6 -7 8 9 0
1 6 -7 -8 -9 0
1 -6 7 8 9 0
1 -6 7 -8 -9 0
1 -6 -7 8 -9 0
1 -6 -7 -8 9 0
-1 6 7 8 9 0
-1 6 7 -8 -9 0
-1 6 -7 8 -9 0
-1 6 -7 -8 9 0
-1 -6 7 8 -9 0
-1 -6 7 -8 9 0
-1 -6 -7 8 9 0
-1 -6 -7 -8 -9 0
10 11 12 13 -14 0
10 11 12 -13 14 0
10 11 -12 13 14 0
10 11 -12 -13 -14 0
10 -11 12 13 14 0
10 -11 12 -13 -14 0
10 -11 -12 13 -14 0
10 -11 -12 -13 14 0
-10 11 12 13 14 0
-10 11 12 -13 -14 0
-10 11 -12 13 -14 0
-10 11 -12 -13 14 0
-10 -11 12 13 -14 0
-10 -11 12 -13 14 0
-10 -11 -12 13 14 0
-10 -11 -12 -13 -14 0
15 16 17 18 -19 0
15 16 17 -18 19 0
15 16 -17 18 19 0
15 16 -17 -18 -19 0
15 -16 17 18 19 0
15 -16 17 -18 -19 0
15 -16 -17 18 -19 0
15 -16 -17 -18 19 0
-15 16 17 18 19 0
-15 16 17 -18 -19 0
-15 16 -17 18 -19 0
-15 16 -17 -18 19 0
-15 -16 17 18 -19 0
-15 -16 17 -18 19 0
-15 -16 -17 18 19 0
-15 -16 -17 -18 -19 0
10 20 21 22 -23 0
10 20 21 -22 23 0
10 20 -21 22 23 0
10 20 -21 -22 -23 0
10 -20 21 22 23 0
10 -20 21 -22 -23 0
10 -20 -21 22 -23 0
10 -20 -21 -22 23 0
-10 20 21 22 23 0
-10 20 21 -22 -23 0
-10 20 -21 22 -23 0
-10 20 -21 -22 23 0
-10 -20 21 22 -23 0
-10 -20 21 -22 23 0
-10 -20 -21 22 23 0
-10 -20 -21 -22 -23 0
2 20 24 25 -26 0
2 20 24 -25 26 0
2 20 -24 25 26 0
2 20 -24 -25 -26 0
2 -20 24 25 26 0
2 -20 24 -25 -26 0
2 -20 -24 25 -26 0
2 -20 -24 -25 26 0
-2 20 24 25 26 0
-2 20 24 -25 -26 0
-2 20 -24 25 -26 0
-2 20 -24 -25 26 0
-2 -20 24 25 -26 0
-2 -20 24 -25 26 0
-2 -20 -24 25 26 0
-2 -20 -24 -25 -26 0
3 15 21 27 28 0
3 15 21 -27 -28 0
3 15 -21 27 -28 0
3 15 -21 -27 28 0
3 -15 21 27 -28 0
3 -15 21 -27 28 0
3 -15 -21 27 28 0
3 -15 -21 -27 -28 0
-3 15 21 27 -28 0
-3 15 21 -27 28 0
-3 15 -21 27 28 0
-3 15 -21 -27 -28 0
-3 -15 21 27 28 0
-3 -15 21 -27 -28 0
-3 -15 -21 27 -28 0
-3 -15 -21 -27 28 0
4 27 29 30 31 0
4 27 29 -30 -31 0
4 27 -29 30 -31 0
4 27 -29 -30 31 0
4 -27 29 30 -31 0
4 -27 29 -30 31 0
4 -27 -29 30 31 0
4 -27 -29 -30 -31 0
-4 27 29 30 -31 0
-4 27 29 -30 31 0
-4 27 -29 30 31 0
-4 27 -29 -30 -31 0
-4 -27 29 30 31 0
-4 -27 29 -30 -31 0
-4 -27 -29 30 -31 0
-4 -27 -29 -30 31 0
5 16 32 33 -34 0
5 16 32 -33 34 0
5 16 -32 33 34 0
5 16 -32 -33 -34 0
5 -16 32 33 34 0
5 -16 32 -33 -34 0
5 -16 -32 33 -34 0
5 -16 -32 -33 34 0
-5 16 32 33 34 0
-5 16 32 -33 -34 0
-5 16 -32 33 -34 0
-5 16 -32 -33 34 0
-5 -16 32 33 -34 0
-5 -16 32 -33 34 0
-5 -16 -32 33 34 0
-5 -16 -32 -33 -34 0
32 35 36 37 -38 0
32 35 36 -37 38 0
32 35 -36 37 38 0
32 35 -36 -37 -38 0
32 -35 36 37 38 0
32 -35 36 -37 -38 0
32 -35 -36 37 -38 0
32 -35 -36 -37 38 0
-32 35 36 37 38 0
-32 35 36 -37 -38 0
-32 35 -36 37 -38 0
-32 35 -36 -37 38 0
-32 -35 36 37 -38 0
-32 -35 36 -37 38 0
-32 -35 -36 37 38 0
-32 -35 -36 -37 -38 0
6 39 40 41 42 0
6 39 40 -41 -42 0
6 39 -40 41 -42 0
6 39 -40 -41 42 0
6 -39 40 41 -42 0
6 -39 40 -41 42 0
6 -39 -40 41 42 0
6 -39 -40 -41 -42 0
-6 39 40 41 -42 0
-6 39 40 -41 42 0
-6 39 -40 41 42 0
-6 39 -40 -41 -42 0
-6 -39 40 41 42 0
-6 -39 40 -41 -42 0
-6 -39 -40 41 -42 0
-6 -39 -40 -41 42 0
29 35 43 44 -45 0
29 35 43 -44 45 0
29 35 -43 44 45 0
29 35 -43 -44 -45 0
29 -35 43 44 45 0
29 -35 43 -44 -45 0
29 -35 -43 44 -45 0
29 -35 -43 -44 45 0
-29 35 43 44 45 0
-29 35 43 -44 -45 0
-29 35 -43 44 -45 0
-29 35 -43 -44 45 0
-29 -35 43 44 -45 0
-29 -35 43 -44 45 0
-29 -35 -43 44 45 0
-29 -35 -43 -44 -45 0
39 46 47 48 49 0
39 46 47 -48 -49 0
39 46 -47 48 -49 0
39 46 -47 -48 49 0
39 -46 47 48 -49 0
39 -46 47 -48 49 0
39 -46 -47 48 49 0
39 -46 -47 -48 -49 0
-39 46 47 48 -49 0
-39 46 47 -48 49 0
-39 46 -47 48 49 0
-39 46 -47 -48 -49 0
-39 -46 47 48 49 0
-39 -46 47 -48 -49 0
-39 -46 -47 48 -49 0
-39 -46 -47 -48 49 0
50 51 52 53 54 0
50 51 52 -53 -54 0
50 51 -52 53 -54 0
50 51 -52 -53 54 0
50 -51 52 53 -54 0
50 -51 52 -53 54 0
50 -51 -52 53 54 0
50 -51 -52 -53 -54 0
-50 51 52 53 -54 0
-50 51 52 -53 54 0
-50 51 -52 53 54 0
-50 51 -52 -53 -54 0
-50 -51 52 53 54 0
-50 -51 52 -53 -54 0
-50 -51 -52 53 -54 0
-50 -51 -52 -53 54 0
11 17 24 55 56 0
11 17 24 -55 -56 0
11 17 -24 55 -56 0
11 17 -24 -55 56 0
11 -17 24 55 -56 0
11 -17 24 -55 56 0
11 -17 -24 55 56 0
11 -17 -24 -55 -56 0
-11 17 24 55 -56 0
-11 17 24 -55 56 0
-11 17 -24 55 56 0
-11 17 -24 -55 -56 0
-11 -17 24 55 56 0
-11 -17 24 -55 -56 0
-11 -17 -24 55 -56 0
-11 -17 -24 -55 56 0
55 57 58 59 60 0
55 57 58 -59 -60 0
55 57 -58 59 -60 0
55 57 -58 -59 60 0
55 -57 58 59 -60 0
55 -57 58 -59 60 0
55 -57 -58 59 60 0
55 -57 -58 -59 -60 0
-55 57 58 59 -60 0
-55 57 58 -59 60 0
-55 57 -58 59 60 0
-55 57 -58 -59 -60 0
-55 -57 58 59 60 0
-55 -57 58 -59 -60 0
-55 -57 -58 59 -60 0
-55 -57 -58 -59 60 0
43 50 57 61 62 0
43 50 57 -61 -62 0
43 50 -57 61 -62 0
43 50 -57 -61 62 0
43 -50 57 61 -62 0
43 -50 57 -61 62 0
43 -50 -57 61 62 0
43 -50 -57 -61 -62 0
-43 50 57 61 -62 0
-43 50 57 -61 62 0
-43 50 -57 61 62 0
-43 50 -57 -61 -62 0
-43 -50 57 61 62 0
-43 -50 57 -61 -62 0
-43 -50 -57 61 -62 0
-43 -50 -57 -61 62 0
28 51 58 61 -63 0
28 51 58 -61 63 0
28 51 -58 61 63 0
28 51 -58 -61 -63 0
28 -51 58 61 63 0
28 -51 58 -61 -63 0
28 -51 -58 61 -63 0
28 -51 -58 -61 63 0
-28 51 58 61 63 0
-28 51 58 -61 -63 0
-28 51 -58 61 -63 0
-28 51 -58 -61 63 0
-28 -51 58 61 -63 0
-28 -51 58 -61 63 0
-28 -51 -58 61 63 0
-28 -51 -58 -61 -63 0
7 12 33 40 64 0
7 12 33 -40 -64 0
7 12 -33 40 -64 0
7 12 -33 -40 64 0
7 -12 33 40 -64 0
7 -12 33 -40 64 0
7 -12 -33 40 64 0
7 -12 -33 -40 -64 0
-7 12 33 40 -64 0
-7 12 33 -40 64 0
-7 12 -33 40 64 0
-7 12 -33 -40 -64 0
-7 -12 33 40 64 0
-7 -12 33 -40 -64 0
-7 -12 -33 40 -64 0
-7 -12 -33 -40 64 0
8 36 65 66 -67 0
8 36 65 -66 67 0
8 36 -65 66 67 0
8 36 -65 -66 -67 0
8 -36 65 66 67 0
8 -36 65 -66 -67 0
8 -36 -65 66 -67 0
8 -36 -65 -66 67 0
-8 36 65 66 67 0
-8 36 65 -66 -67 0
-8 36 -65 66 -67 0
-8 36 -65 -66 67 0
-8 -36 65 66 -67 0
-8 -36 65 -66 67 0
-8 -36 -65 66 67 0
-8 -36 -65 -66 -67 0
13 59 68 69 70 0
13 59 68 -69 -70 0
13 59 -68 69 -70 0
13 59 -68 -69 70 0
13 -59 68 69 -70 0
13 -59 68 -69 70 0
13 -59 -68 69 70 0
13 -59 -68 -69 -70 0
-13 59 68 69 -70 0
-13 59 68 -69 70 0
-13 59 -68 69 70 0
-13 59 -68 -69 -70 0
-13 -59 68 69 70 0
-13 -59 68 -69 -70 0
-13 -59 -68 69 -70 0
-13 -59 -68 -69 70 0
37 46 65 71 72 0
37 46 65 -71 -72 0
37 46 -65 71 -72 0
37 46 -65 -71 72 0
37 -46 65 71 -72 0
37 -46 65 -71 72 0
37 -46 -65 71 72 0
37 -46 -65 -71 -72 0
-37 46 65 71 -72 0
-37 46 65 -71 72 0
-37 46 -65 71 72 0
-37 46 -65 -71 -72 0
-37 -46 65 71 72 0
-37 -46 65 -71 -72 0
-37 -46 -65 71 -72 0
-37 -46 -65 -71 72 0
14 18 30 52 -73 0
14 18 30 -52 73 0
14 18 -30 52 73 0
14 18 -30 -52 -73 0
14 -18 30 52 73 0
14 -18 30 -52 -73 0
14 -18 -30 52 -73 0
14 -18 -30 -52 73 0
-14 18 30 52 73 0
-14 18 30 -52 -73 0
-14 18 -30 52 -73 0
-14 18 -30 -52 73 0
-14 -18 30 52 -73 0
-14 -18 30 -52 73 0
-14 -18 -30 52 73 0
-14 -18 -30 -52 -73 0
22 44 47 71 -74 0
22 44 47 -71 74 0
22 44 -47 71 74 0
22 44 -47 -71 -74 0
22 -44 47 71 74 0
22 -44 47 -71 -74 0
22 -44 -47 71 -74 0
22 -44 -47 -71 74 0
-22 44 47 71 74 0
-22 44 47 -71 -74 0
-22 44 -47 71 -74 0
-22 44 -47 -71 74 0
-22 -44 47 71 -74 0
-22 -44 47 -71 74 0
-22 -44 -47 71 74 0
-22 -44 -47 -71 -74 0
23 25 48 68 -75 0
23 25 48 -68 75 0
23 25 -48 68 75 0
23 25 -48 -68 -75 0
23 -25 48 68 75 0
23 -25 48 -68 -75 0
23 -25 -48 68 -75 0
23 -25 -48 -68 75 0
-23 25 48 68 75 0
-23 25 48 -68 -75 0
-23 25 -48 68 -75 0
-23 25 -48 -68 75 0
-23 -25 48 68 -75 0
-23 -25 48 -68 75 0
-23 -25 -48 68 75 0
-23 -25 -48 -68 -75 0
31 38 66 72 -74 0
31 38 66 -72 74 0
31 38 -66 72 74 0
31 38 -66 -72 -74 0
31 -38 66 72 74 0
31 -38 66 -72 -74 0
31 -38 -66 72 -74 0
31 -38 -66 -72 74 0
-31 38 66 72 74 0
-31 38 66 -72 -74 0
-31 38 -66 72 -74 0
-31 38 -66 -72 74 0
-31 -38 66 72 -74 0
-31 -38 66 -72 74 0
-31 -38 -66 72 74 0
-31 -38 -66 -72 -74 0
26 49 62 67 -75 0
26 49 62 -67 75 0
26 49 -62 67 75 0
26 49 -62 -67 -75 0
26 -49 62 67 75 0
26 -49 62 -67 -75 0
26 -49 -62 67 -75 0
26 -49 -62 -67 75 0
-26 49 62 67 75 0
-26 49 62 -67 -75 0
-26 49 -62 67 -75 0
-26 49 -62 -67 75 0
-26 -49 62 67 -75 0
-26 -49 62 -67 75 0
-26 -49 -62 67 75 0
-26 -49 -62 -67 -75 0
19 34 53 56 64 0
19 34 53 -56 -64 0
19 34 -53 56 -64 0
19 34 -53 -56 64 0
19 -34 53 56 -64 0
19 -34 53 -56 64 0
19 -34 -53 56 64 0
19 -34 -53 -56 -64 0
-19 34 53 56 -64 0
-19 34 53 -56 64 0
-19 34 -53 56 64 0
-19 34 -53 -56 -64 0
-19 -34 53 56 64 0
-19 -34 53 -56 -64 0
-19 -34 -53 56 -64 0
-19 -34 -53 -56 64 0
9 41 60 69 -73 0
9 41 60 -69 73 0
9 41 -60 69 73 0
9 41 -60 -69 -73 0
9 -41 60 69 73 0
9 -41 60 -69 -73 0
9 -41 -60 69 -73 0
9 -41 -60 -69 73 0
-9 41 60 69 73 0
-9 41 60 -69 -73 0
-9 41 -60 69 -73 0
-9 41 -60 -69 73 0
-9 -41 60 69 -73 0
-9 -41 60 -69 73 0
-9 -41 -60 69 73 0
-9 -41 -60 -69 -73 0
42 45 54 63 70 0
42 45 54 -63 -70 0
42 45 -54 63 -70 0
42 45 -54 -63 70 0
42 -45 54 63 -70 0
42 -45 54 -63 70 0
42 -45 -54 63 70 0
42 -45 -54 -63 -70 0
-42 45 54 63 -70 0
-42 45 54 -63 70 0
-42 45 -54 63 70 0
-42 45 -54 -63 -70 0
-42 -45 54 63 70 0
-42 -45 54 -63 -70 0
-42 -45 -54 63 -70 0
-42 -45 -54 -63 70 0
